12,1,6,1,15,2,8,1,13,3,11,3,6,3,8,2,5,4,14,5,2,3,11,5,2,5;1,1,4,2,5,1,6,2,12,2,9,3,14,2,3,3,15,3,2,2,7,2,13,4,11,4,6,5,7,4,5,5,3,5;15,1,4,1,9,1,9,2,3,2,12,3,5,3,14,3,1,2,6,4,1,3,3,4,1,4,13,5,8,5;2,1,10,1,13,1,7,1,11,1,11,2,4,3,4,4,9,4,10,3,10,4,8,3,12,5,9,5,1,5,15,5;3,1,14,1,13,2,5,2,10,2,12,4,15,4,14,4,7,3,10,5,8,4,4,5,2,4,7,5;
